% Generado automaticamente desde C:/Users/andres/Desktop/SEPTIMO SEMESTRE/ADAII/proyecto_final/Proyecto-Optimizacion-ADA2/BateriaPruebas_2025_2_P2-txt/Prueba31.txt

n = 20;
m = 5;
ct = 35.0;
maxMovs = 25.0;
v = [0.142, 0.443, 0.885, 0.976, 0.993];
p = [1, 6, 4, 2, 7];
s = [| 0, 1, 0 | 6, 0, 0 | 2, 1, 1 | 0, 0, 2 | 1, 6, 0 |];
